6772.02 0
0 85 118 161 48 68 8 0
0 86 190 39 164 49 102 1 0
0 154 23 112 159 178 59 5 0
0 120 125 171 182 31 47 94 2 0
0 141 174 183 196 81 87 134 34 0
0 152 160 66 67 72 147 181 13 0
0 188 32 79 108 113 133 93 170 19 0
0 180 30 105 114 155 195 14 65 95 3 0
0 167 198 4 12 16 62 107 111 130 156 15 0
0 166 184 197 22 44 54 58 75 149 151 26 0
0 176 193 100 135 148 177 194 9 10 27 28 71 0
0 38 45 82 103 123 144 158 162 189 89 106 116 21 0
0 127 138 157 169 191 53 77 128 139 175 187 50 61 76 17 0
0 142 168 179 11 18 97 132 163 172 186 33 83 96 109 131 143 153 0
0 192 51 63 98 115 124 145 150 185 20 29 40 52 64 73 88 99 104 119 137 35 55 0
0 37 74 121 122 165 43 57 84 101 126 140 25 56 69 80 129 136 173 7 36 41 42 70 110 146 199 6 24 60 78 90 117 92 46 91 0
